NAME : pr4.tsp
COMMENT : 4-city problem
TYPE : ATSP 
DIMENSION : 4
EDGE_WEIGHT_TYPE : EXPLICIT
EDGE_WEIGHT_FORMAT : FULL_MATRIX
EDGE_WEIGHT_SECTION 
0        30162    20213    24508   
70440    0        28104    54677   
112645   80258    0        105715  
22014    11905    10789    0       
EOF 
